% Logging successfully configured
%%%mzn-stat: initTime=0.03378764
%%%mzn-stat: objective=968
%%%mzn-stat: nodes=194
%%%mzn-stat: restarts=0
%%%mzn-stat: peakDepth=75
%%%mzn-stat: solveTime=0.005300925
%%%mzn-stat: variables=198
%%%mzn-stat: propagators=312
%%%mzn-stat: failures=104
%%%mzn-stat: propagations=14204
%%%mzn-stat: nogoods=104
%%%mzn-stat: numAtomicConstraintsPropagated=0
%%%mzn-stat: circuitNumber191PropagationsThatFoundConflict=40
%%%mzn-stat: circuitNumber191TotalFixedEdgesAtConflict=538
%%%mzn-stat: circuitNumber191NumberOfConflicts=40
%%%mzn-stat: circuitNumber191PropagationsThatPruned=23
%%%mzn-stat: circuitNumber191PropagationsTotal=175
%%%mzn-stat: AverageConflictSize=3.4423076923076925
%%%mzn-stat: NumUnitNogoodsLearned=1
%%%mzn-stat: AverageLearnedNogoodLength=6.480769230769231
%%%mzn-stat: AverageBacktrackAmount=0
%%%mzn-stat: AverageLbd=3.2884615384615383
%%%mzn-stat: 2AutonomousSearchNumBackupCalled=66
%%%mzn-stat: 2AutonomousSearchNumPredicatesRemoved=0
%%%mzn-stat: 2AutonomousSearchNumCalls=67
%%%mzn-stat: 2AutonomousSearchNumPredicatesAdded=510
%%%mzn-stat: 2AutonomousSearchAverageSizeOfHeap=7.611940298507463
%%%mzn-stat: 2AutonomousSearchNumAssignedPredicatesEncountered=510
%%%mzn-stat-end
maxleg = 968;
succ = array1d(1..20,[4, 12, 5, 3, 15, 11, 6, 2, 17, 9, 14, 13, 1, 19, 16, 18, 8, 7, 20, 10]);
% time elapsed: 16.55 s
----------
==========
% time elapsed: 16.55 s
%%%mzn-stat: initTime=0.03378764
%%%mzn-stat: objective=968
%%%mzn-stat: nodes=198
%%%mzn-stat: restarts=0
%%%mzn-stat: peakDepth=75
%%%mzn-stat: solveTime=0.005460956
%%%mzn-stat: variables=198
%%%mzn-stat: propagators=312
%%%mzn-stat: failures=109
%%%mzn-stat: propagations=14586
%%%mzn-stat: nogoods=109
%%%mzn-stat: numAtomicConstraintsPropagated=0
%%%mzn-stat: circuitNumber191PropagationsThatFoundConflict=45
%%%mzn-stat: circuitNumber191TotalFixedEdgesAtConflict=556
%%%mzn-stat: circuitNumber191NumberOfConflicts=45
%%%mzn-stat: circuitNumber191PropagationsThatPruned=23
%%%mzn-stat: circuitNumber191PropagationsTotal=182
%%%mzn-stat: AverageConflictSize=3.44954128440367
%%%mzn-stat: NumUnitNogoodsLearned=2
%%%mzn-stat: AverageLearnedNogoodLength=6.26605504587156
%%%mzn-stat: AverageBacktrackAmount=0
%%%mzn-stat: AverageLbd=3.220183486238532
%%%mzn-stat: 2AutonomousSearchNumBackupCalled=66
%%%mzn-stat: 2AutonomousSearchNumPredicatesRemoved=0
%%%mzn-stat: 2AutonomousSearchNumCalls=67
%%%mzn-stat: 2AutonomousSearchNumPredicatesAdded=624
%%%mzn-stat: 2AutonomousSearchAverageSizeOfHeap=7.611940298507463
%%%mzn-stat: 2AutonomousSearchNumAssignedPredicatesEncountered=510
%%%mzn-stat-end
